n = 100;
C = 521;
w = [429,463,240,632,358,702,526,827,529,400,136,699,202,555,939,915,722,741,74,281,60,534,922,848,918,203,412,631,470,636,423,64,258,991,44,146,287,739,632,463,275,277,805,847,619,471,689,660,997,916,798,716,151,838,472,690,895,688,490,620,248,91,465,422,732,477,40,582,436,446,778,414,137,289,627,630,487,857,392,479,157,426,618,209,454,899,567,237,195,499,824,196,599,617,860,830,729,306,132,772];
p = [411,511,286,651,359,711,602,769,521,443,170,721,242,478,1033,1014,667,680,62,313,118,504,965,910,904,276,354,552,566,650,475,121,166,1075,45,149,242,724,667,381,354,316,795,837,583,507,729,600,906,846,756,616,124,918,461,744,837,591,396,626,294,169,467,434,657,563,-14,522,396,452,707,405,161,241,564,718,523,843,298,463,160,345,593,291,553,910,630,301,169,438,813,96,574,627,764,742,690,335,103,835];
